sing20170301.12
TTAA 51121 48698
99007 26229 04006 00083 25427 35505 92767 21637 03512
85498 18850 02007 70141 09229 03509 50586 05304 13510
40758 15112 12010 30970 29924 05509 25097 40524 06517
20244 53538 06017 15422 69746 07528 10656 78759 13510
88114 79158 10561
77118 10072 444//=
TTCC 51122 48698
70857 76363 23012 50057 66772 27029 30370 60178 27036
20625 57380 28536
88898 81558 26023
77999=
TTDD 5112/ 48698
11898 81558 22788 82758 33680 76363 44676 76364 55636
69569 66599 69369 77583 70169 88555 65972 99529 67971
11352 61577 22316 62776 33258 56979 44205 58978 55191
54580
21212 11974 20004 22958 25010 33918 26526 44717 22518
55699 23012 66672 17010 77640 22004 88625 28010 99602
26511 11589 28511 22577 26013 33539 28528 44462 26037
55425 26544 66353 24041 77306 27038 88209 26536 99199
28534 11191 28530=
